g3 1 1 0
 45 184 1 0 1 0
 183 1
 0 0
 44 0 0
 0 0 0 1
 0 0 0 0 0
 1186 1
 0 0
 0 0 0 0 0
C0
o54
9
o2
v0
v0
o2
n-2
o2
v1
v0
o2
v1
v1
o2
v14
v14
o2
n-2
o2
v15
v14
o2
v15
v15
o2
v28
v28
o2
n-2
o2
v29
v28
o2
v29
v29
C1
o54
9
o2
v0
v0
o2
n-2
o2
v2
v0
o2
v2
v2
o2
v14
v14
o2
n-2
o2
v16
v14
o2
v16
v16
o2
v28
v28
o2
n-2
o2
v30
v28
o2
v30
v30
C2
o54
9
o2
v0
v0
o2
n-2
o2
v3
v0
o2
v3
v3
o2
v14
v14
o2
n-2
o2
v17
v14
o2
v17
v17
o2
v28
v28
o2
n-2
o2
v31
v28
o2
v31
v31
C3
o54
9
o2
v0
v0
o2
n-2
o2
v4
v0
o2
v4
v4
o2
v14
v14
o2
n-2
o2
v18
v14
o2
v18
v18
o2
v28
v28
o2
n-2
o2
v32
v28
o2
v32
v32
C4
o54
9
o2
v0
v0
o2
n-2
o2
v5
v0
o2
v5
v5
o2
v14
v14
o2
n-2
o2
v19
v14
o2
v19
v19
o2
v28
v28
o2
n-2
o2
v33
v28
o2
v33
v33
C5
o54
9
o2
v0
v0
o2
n-2
o2
v6
v0
o2
v6
v6
o2
v14
v14
o2
n-2
o2
v20
v14
o2
v20
v20
o2
v28
v28
o2
n-2
o2
v34
v28
o2
v34
v34
C6
o54
9
o2
v0
v0
o2
n-2
o2
v7
v0
o2
v7
v7
o2
v14
v14
o2
n-2
o2
v21
v14
o2
v21
v21
o2
v28
v28
o2
n-2
o2
v35
v28
o2
v35
v35
C7
o54
9
o2
v0
v0
o2
n-2
o2
v8
v0
o2
v8
v8
o2
v14
v14
o2
n-2
o2
v22
v14
o2
v22
v22
o2
v28
v28
o2
n-2
o2
v36
v28
o2
v36
v36
C8
o54
9
o2
v0
v0
o2
n-2
o2
v9
v0
o2
v9
v9
o2
v14
v14
o2
n-2
o2
v23
v14
o2
v23
v23
o2
v28
v28
o2
n-2
o2
v37
v28
o2
v37
v37
C9
o54
9
o2
v0
v0
o2
n-2
o2
v10
v0
o2
v10
v10
o2
v14
v14
o2
n-2
o2
v24
v14
o2
v24
v24
o2
v28
v28
o2
n-2
o2
v38
v28
o2
v38
v38
C10
o54
9
o2
v0
v0
o2
n-2
o2
v11
v0
o2
v11
v11
o2
v14
v14
o2
n-2
o2
v25
v14
o2
v25
v25
o2
v28
v28
o2
n-2
o2
v39
v28
o2
v39
v39
C11
o54
9
o2
v0
v0
o2
n-2
o2
v12
v0
o2
v12
v12
o2
v14
v14
o2
n-2
o2
v26
v14
o2
v26
v26
o2
v28
v28
o2
n-2
o2
v40
v28
o2
v40
v40
C12
o54
9
o2
v0
v0
o2
n-2
o2
v13
v0
o2
v13
v13
o2
v14
v14
o2
n-2
o2
v27
v14
o2
v27
v27
o2
v28
v28
o2
n-2
o2
v41
v28
o2
v41
v41
C13
o54
9
o2
v1
v1
o2
n-2
o2
v2
v1
o2
v2
v2
o2
v15
v15
o2
n-2
o2
v16
v15
o2
v16
v16
o2
v29
v29
o2
n-2
o2
v30
v29
o2
v30
v30
C14
o54
9
o2
v1
v1
o2
n-2
o2
v3
v1
o2
v3
v3
o2
v15
v15
o2
n-2
o2
v17
v15
o2
v17
v17
o2
v29
v29
o2
n-2
o2
v31
v29
o2
v31
v31
C15
o54
9
o2
v1
v1
o2
n-2
o2
v4
v1
o2
v4
v4
o2
v15
v15
o2
n-2
o2
v18
v15
o2
v18
v18
o2
v29
v29
o2
n-2
o2
v32
v29
o2
v32
v32
C16
o54
9
o2
v1
v1
o2
n-2
o2
v5
v1
o2
v5
v5
o2
v15
v15
o2
n-2
o2
v19
v15
o2
v19
v19
o2
v29
v29
o2
n-2
o2
v33
v29
o2
v33
v33
C17
o54
9
o2
v1
v1
o2
n-2
o2
v6
v1
o2
v6
v6
o2
v15
v15
o2
n-2
o2
v20
v15
o2
v20
v20
o2
v29
v29
o2
n-2
o2
v34
v29
o2
v34
v34
C18
o54
9
o2
v1
v1
o2
n-2
o2
v7
v1
o2
v7
v7
o2
v15
v15
o2
n-2
o2
v21
v15
o2
v21
v21
o2
v29
v29
o2
n-2
o2
v35
v29
o2
v35
v35
C19
o54
9
o2
v1
v1
o2
n-2
o2
v8
v1
o2
v8
v8
o2
v15
v15
o2
n-2
o2
v22
v15
o2
v22
v22
o2
v29
v29
o2
n-2
o2
v36
v29
o2
v36
v36
C20
o54
9
o2
v1
v1
o2
n-2
o2
v9
v1
o2
v9
v9
o2
v15
v15
o2
n-2
o2
v23
v15
o2
v23
v23
o2
v29
v29
o2
n-2
o2
v37
v29
o2
v37
v37
C21
o54
9
o2
v1
v1
o2
n-2
o2
v10
v1
o2
v10
v10
o2
v15
v15
o2
n-2
o2
v24
v15
o2
v24
v24
o2
v29
v29
o2
n-2
o2
v38
v29
o2
v38
v38
C22
o54
9
o2
v1
v1
o2
n-2
o2
v11
v1
o2
v11
v11
o2
v15
v15
o2
n-2
o2
v25
v15
o2
v25
v25
o2
v29
v29
o2
n-2
o2
v39
v29
o2
v39
v39
C23
o54
9
o2
v1
v1
o2
n-2
o2
v12
v1
o2
v12
v12
o2
v15
v15
o2
n-2
o2
v26
v15
o2
v26
v26
o2
v29
v29
o2
n-2
o2
v40
v29
o2
v40
v40
C24
o54
9
o2
v1
v1
o2
n-2
o2
v13
v1
o2
v13
v13
o2
v15
v15
o2
n-2
o2
v27
v15
o2
v27
v27
o2
v29
v29
o2
n-2
o2
v41
v29
o2
v41
v41
C25
o54
9
o2
v2
v2
o2
n-2
o2
v3
v2
o2
v3
v3
o2
v16
v16
o2
n-2
o2
v17
v16
o2
v17
v17
o2
v30
v30
o2
n-2
o2
v31
v30
o2
v31
v31
C26
o54
9
o2
v2
v2
o2
n-2
o2
v4
v2
o2
v4
v4
o2
v16
v16
o2
n-2
o2
v18
v16
o2
v18
v18
o2
v30
v30
o2
n-2
o2
v32
v30
o2
v32
v32
C27
o54
9
o2
v2
v2
o2
n-2
o2
v5
v2
o2
v5
v5
o2
v16
v16
o2
n-2
o2
v19
v16
o2
v19
v19
o2
v30
v30
o2
n-2
o2
v33
v30
o2
v33
v33
C28
o54
9
o2
v2
v2
o2
n-2
o2
v6
v2
o2
v6
v6
o2
v16
v16
o2
n-2
o2
v20
v16
o2
v20
v20
o2
v30
v30
o2
n-2
o2
v34
v30
o2
v34
v34
C29
o54
9
o2
v2
v2
o2
n-2
o2
v7
v2
o2
v7
v7
o2
v16
v16
o2
n-2
o2
v21
v16
o2
v21
v21
o2
v30
v30
o2
n-2
o2
v35
v30
o2
v35
v35
C30
o54
9
o2
v2
v2
o2
n-2
o2
v8
v2
o2
v8
v8
o2
v16
v16
o2
n-2
o2
v22
v16
o2
v22
v22
o2
v30
v30
o2
n-2
o2
v36
v30
o2
v36
v36
C31
o54
9
o2
v2
v2
o2
n-2
o2
v9
v2
o2
v9
v9
o2
v16
v16
o2
n-2
o2
v23
v16
o2
v23
v23
o2
v30
v30
o2
n-2
o2
v37
v30
o2
v37
v37
C32
o54
9
o2
v2
v2
o2
n-2
o2
v10
v2
o2
v10
v10
o2
v16
v16
o2
n-2
o2
v24
v16
o2
v24
v24
o2
v30
v30
o2
n-2
o2
v38
v30
o2
v38
v38
C33
o54
9
o2
v2
v2
o2
n-2
o2
v11
v2
o2
v11
v11
o2
v16
v16
o2
n-2
o2
v25
v16
o2
v25
v25
o2
v30
v30
o2
n-2
o2
v39
v30
o2
v39
v39
C34
o54
9
o2
v2
v2
o2
n-2
o2
v12
v2
o2
v12
v12
o2
v16
v16
o2
n-2
o2
v26
v16
o2
v26
v26
o2
v30
v30
o2
n-2
o2
v40
v30
o2
v40
v40
C35
o54
9
o2
v2
v2
o2
n-2
o2
v13
v2
o2
v13
v13
o2
v16
v16
o2
n-2
o2
v27
v16
o2
v27
v27
o2
v30
v30
o2
n-2
o2
v41
v30
o2
v41
v41
C36
o54
9
o2
v3
v3
o2
n-2
o2
v4
v3
o2
v4
v4
o2
v17
v17
o2
n-2
o2
v18
v17
o2
v18
v18
o2
v31
v31
o2
n-2
o2
v32
v31
o2
v32
v32
C37
o54
9
o2
v3
v3
o2
n-2
o2
v5
v3
o2
v5
v5
o2
v17
v17
o2
n-2
o2
v19
v17
o2
v19
v19
o2
v31
v31
o2
n-2
o2
v33
v31
o2
v33
v33
C38
o54
9
o2
v3
v3
o2
n-2
o2
v6
v3
o2
v6
v6
o2
v17
v17
o2
n-2
o2
v20
v17
o2
v20
v20
o2
v31
v31
o2
n-2
o2
v34
v31
o2
v34
v34
C39
o54
9
o2
v3
v3
o2
n-2
o2
v7
v3
o2
v7
v7
o2
v17
v17
o2
n-2
o2
v21
v17
o2
v21
v21
o2
v31
v31
o2
n-2
o2
v35
v31
o2
v35
v35
C40
o54
9
o2
v3
v3
o2
n-2
o2
v8
v3
o2
v8
v8
o2
v17
v17
o2
n-2
o2
v22
v17
o2
v22
v22
o2
v31
v31
o2
n-2
o2
v36
v31
o2
v36
v36
C41
o54
9
o2
v3
v3
o2
n-2
o2
v9
v3
o2
v9
v9
o2
v17
v17
o2
n-2
o2
v23
v17
o2
v23
v23
o2
v31
v31
o2
n-2
o2
v37
v31
o2
v37
v37
C42
o54
9
o2
v3
v3
o2
n-2
o2
v10
v3
o2
v10
v10
o2
v17
v17
o2
n-2
o2
v24
v17
o2
v24
v24
o2
v31
v31
o2
n-2
o2
v38
v31
o2
v38
v38
C43
o54
9
o2
v3
v3
o2
n-2
o2
v11
v3
o2
v11
v11
o2
v17
v17
o2
n-2
o2
v25
v17
o2
v25
v25
o2
v31
v31
o2
n-2
o2
v39
v31
o2
v39
v39
C44
o54
9
o2
v3
v3
o2
n-2
o2
v12
v3
o2
v12
v12
o2
v17
v17
o2
n-2
o2
v26
v17
o2
v26
v26
o2
v31
v31
o2
n-2
o2
v40
v31
o2
v40
v40
C45
o54
9
o2
v3
v3
o2
n-2
o2
v13
v3
o2
v13
v13
o2
v17
v17
o2
n-2
o2
v27
v17
o2
v27
v27
o2
v31
v31
o2
n-2
o2
v41
v31
o2
v41
v41
C46
o54
9
o2
v4
v4
o2
n-2
o2
v5
v4
o2
v5
v5
o2
v18
v18
o2
n-2
o2
v19
v18
o2
v19
v19
o2
v32
v32
o2
n-2
o2
v33
v32
o2
v33
v33
C47
o54
9
o2
v4
v4
o2
n-2
o2
v6
v4
o2
v6
v6
o2
v18
v18
o2
n-2
o2
v20
v18
o2
v20
v20
o2
v32
v32
o2
n-2
o2
v34
v32
o2
v34
v34
C48
o54
9
o2
v4
v4
o2
n-2
o2
v7
v4
o2
v7
v7
o2
v18
v18
o2
n-2
o2
v21
v18
o2
v21
v21
o2
v32
v32
o2
n-2
o2
v35
v32
o2
v35
v35
C49
o54
9
o2
v4
v4
o2
n-2
o2
v8
v4
o2
v8
v8
o2
v18
v18
o2
n-2
o2
v22
v18
o2
v22
v22
o2
v32
v32
o2
n-2
o2
v36
v32
o2
v36
v36
C50
o54
9
o2
v4
v4
o2
n-2
o2
v9
v4
o2
v9
v9
o2
v18
v18
o2
n-2
o2
v23
v18
o2
v23
v23
o2
v32
v32
o2
n-2
o2
v37
v32
o2
v37
v37
C51
o54
9
o2
v4
v4
o2
n-2
o2
v10
v4
o2
v10
v10
o2
v18
v18
o2
n-2
o2
v24
v18
o2
v24
v24
o2
v32
v32
o2
n-2
o2
v38
v32
o2
v38
v38
C52
o54
9
o2
v4
v4
o2
n-2
o2
v11
v4
o2
v11
v11
o2
v18
v18
o2
n-2
o2
v25
v18
o2
v25
v25
o2
v32
v32
o2
n-2
o2
v39
v32
o2
v39
v39
C53
o54
9
o2
v4
v4
o2
n-2
o2
v12
v4
o2
v12
v12
o2
v18
v18
o2
n-2
o2
v26
v18
o2
v26
v26
o2
v32
v32
o2
n-2
o2
v40
v32
o2
v40
v40
C54
o54
9
o2
v4
v4
o2
n-2
o2
v13
v4
o2
v13
v13
o2
v18
v18
o2
n-2
o2
v27
v18
o2
v27
v27
o2
v32
v32
o2
n-2
o2
v41
v32
o2
v41
v41
C55
o54
9
o2
v5
v5
o2
n-2
o2
v6
v5
o2
v6
v6
o2
v19
v19
o2
n-2
o2
v20
v19
o2
v20
v20
o2
v33
v33
o2
n-2
o2
v34
v33
o2
v34
v34
C56
o54
9
o2
v5
v5
o2
n-2
o2
v7
v5
o2
v7
v7
o2
v19
v19
o2
n-2
o2
v21
v19
o2
v21
v21
o2
v33
v33
o2
n-2
o2
v35
v33
o2
v35
v35
C57
o54
9
o2
v5
v5
o2
n-2
o2
v8
v5
o2
v8
v8
o2
v19
v19
o2
n-2
o2
v22
v19
o2
v22
v22
o2
v33
v33
o2
n-2
o2
v36
v33
o2
v36
v36
C58
o54
9
o2
v5
v5
o2
n-2
o2
v9
v5
o2
v9
v9
o2
v19
v19
o2
n-2
o2
v23
v19
o2
v23
v23
o2
v33
v33
o2
n-2
o2
v37
v33
o2
v37
v37
C59
o54
9
o2
v5
v5
o2
n-2
o2
v10
v5
o2
v10
v10
o2
v19
v19
o2
n-2
o2
v24
v19
o2
v24
v24
o2
v33
v33
o2
n-2
o2
v38
v33
o2
v38
v38
C60
o54
9
o2
v5
v5
o2
n-2
o2
v11
v5
o2
v11
v11
o2
v19
v19
o2
n-2
o2
v25
v19
o2
v25
v25
o2
v33
v33
o2
n-2
o2
v39
v33
o2
v39
v39
C61
o54
9
o2
v5
v5
o2
n-2
o2
v12
v5
o2
v12
v12
o2
v19
v19
o2
n-2
o2
v26
v19
o2
v26
v26
o2
v33
v33
o2
n-2
o2
v40
v33
o2
v40
v40
C62
o54
9
o2
v5
v5
o2
n-2
o2
v13
v5
o2
v13
v13
o2
v19
v19
o2
n-2
o2
v27
v19
o2
v27
v27
o2
v33
v33
o2
n-2
o2
v41
v33
o2
v41
v41
C63
o54
9
o2
v6
v6
o2
n-2
o2
v7
v6
o2
v7
v7
o2
v20
v20
o2
n-2
o2
v21
v20
o2
v21
v21
o2
v34
v34
o2
n-2
o2
v35
v34
o2
v35
v35
C64
o54
9
o2
v6
v6
o2
n-2
o2
v8
v6
o2
v8
v8
o2
v20
v20
o2
n-2
o2
v22
v20
o2
v22
v22
o2
v34
v34
o2
n-2
o2
v36
v34
o2
v36
v36
C65
o54
9
o2
v6
v6
o2
n-2
o2
v9
v6
o2
v9
v9
o2
v20
v20
o2
n-2
o2
v23
v20
o2
v23
v23
o2
v34
v34
o2
n-2
o2
v37
v34
o2
v37
v37
C66
o54
9
o2
v6
v6
o2
n-2
o2
v10
v6
o2
v10
v10
o2
v20
v20
o2
n-2
o2
v24
v20
o2
v24
v24
o2
v34
v34
o2
n-2
o2
v38
v34
o2
v38
v38
C67
o54
9
o2
v6
v6
o2
n-2
o2
v11
v6
o2
v11
v11
o2
v20
v20
o2
n-2
o2
v25
v20
o2
v25
v25
o2
v34
v34
o2
n-2
o2
v39
v34
o2
v39
v39
C68
o54
9
o2
v6
v6
o2
n-2
o2
v12
v6
o2
v12
v12
o2
v20
v20
o2
n-2
o2
v26
v20
o2
v26
v26
o2
v34
v34
o2
n-2
o2
v40
v34
o2
v40
v40
C69
o54
9
o2
v6
v6
o2
n-2
o2
v13
v6
o2
v13
v13
o2
v20
v20
o2
n-2
o2
v27
v20
o2
v27
v27
o2
v34
v34
o2
n-2
o2
v41
v34
o2
v41
v41
C70
o54
9
o2
v7
v7
o2
n-2
o2
v8
v7
o2
v8
v8
o2
v21
v21
o2
n-2
o2
v22
v21
o2
v22
v22
o2
v35
v35
o2
n-2
o2
v36
v35
o2
v36
v36
C71
o54
9
o2
v7
v7
o2
n-2
o2
v9
v7
o2
v9
v9
o2
v21
v21
o2
n-2
o2
v23
v21
o2
v23
v23
o2
v35
v35
o2
n-2
o2
v37
v35
o2
v37
v37
C72
o54
9
o2
v7
v7
o2
n-2
o2
v10
v7
o2
v10
v10
o2
v21
v21
o2
n-2
o2
v24
v21
o2
v24
v24
o2
v35
v35
o2
n-2
o2
v38
v35
o2
v38
v38
C73
o54
9
o2
v7
v7
o2
n-2
o2
v11
v7
o2
v11
v11
o2
v21
v21
o2
n-2
o2
v25
v21
o2
v25
v25
o2
v35
v35
o2
n-2
o2
v39
v35
o2
v39
v39
C74
o54
9
o2
v7
v7
o2
n-2
o2
v12
v7
o2
v12
v12
o2
v21
v21
o2
n-2
o2
v26
v21
o2
v26
v26
o2
v35
v35
o2
n-2
o2
v40
v35
o2
v40
v40
C75
o54
9
o2
v7
v7
o2
n-2
o2
v13
v7
o2
v13
v13
o2
v21
v21
o2
n-2
o2
v27
v21
o2
v27
v27
o2
v35
v35
o2
n-2
o2
v41
v35
o2
v41
v41
C76
o54
9
o2
v8
v8
o2
n-2
o2
v9
v8
o2
v9
v9
o2
v22
v22
o2
n-2
o2
v23
v22
o2
v23
v23
o2
v36
v36
o2
n-2
o2
v37
v36
o2
v37
v37
C77
o54
9
o2
v8
v8
o2
n-2
o2
v10
v8
o2
v10
v10
o2
v22
v22
o2
n-2
o2
v24
v22
o2
v24
v24
o2
v36
v36
o2
n-2
o2
v38
v36
o2
v38
v38
C78
o54
9
o2
v8
v8
o2
n-2
o2
v11
v8
o2
v11
v11
o2
v22
v22
o2
n-2
o2
v25
v22
o2
v25
v25
o2
v36
v36
o2
n-2
o2
v39
v36
o2
v39
v39
C79
o54
9
o2
v8
v8
o2
n-2
o2
v12
v8
o2
v12
v12
o2
v22
v22
o2
n-2
o2
v26
v22
o2
v26
v26
o2
v36
v36
o2
n-2
o2
v40
v36
o2
v40
v40
C80
o54
9
o2
v8
v8
o2
n-2
o2
v13
v8
o2
v13
v13
o2
v22
v22
o2
n-2
o2
v27
v22
o2
v27
v27
o2
v36
v36
o2
n-2
o2
v41
v36
o2
v41
v41
C81
o54
9
o2
v9
v9
o2
n-2
o2
v10
v9
o2
v10
v10
o2
v23
v23
o2
n-2
o2
v24
v23
o2
v24
v24
o2
v37
v37
o2
n-2
o2
v38
v37
o2
v38
v38
C82
o54
9
o2
v9
v9
o2
n-2
o2
v11
v9
o2
v11
v11
o2
v23
v23
o2
n-2
o2
v25
v23
o2
v25
v25
o2
v37
v37
o2
n-2
o2
v39
v37
o2
v39
v39
C83
o54
9
o2
v9
v9
o2
n-2
o2
v12
v9
o2
v12
v12
o2
v23
v23
o2
n-2
o2
v26
v23
o2
v26
v26
o2
v37
v37
o2
n-2
o2
v40
v37
o2
v40
v40
C84
o54
9
o2
v9
v9
o2
n-2
o2
v13
v9
o2
v13
v13
o2
v23
v23
o2
n-2
o2
v27
v23
o2
v27
v27
o2
v37
v37
o2
n-2
o2
v41
v37
o2
v41
v41
C85
o54
9
o2
v10
v10
o2
n-2
o2
v11
v10
o2
v11
v11
o2
v24
v24
o2
n-2
o2
v25
v24
o2
v25
v25
o2
v38
v38
o2
n-2
o2
v39
v38
o2
v39
v39
C86
o54
9
o2
v10
v10
o2
n-2
o2
v12
v10
o2
v12
v12
o2
v24
v24
o2
n-2
o2
v26
v24
o2
v26
v26
o2
v38
v38
o2
n-2
o2
v40
v38
o2
v40
v40
C87
o54
9
o2
v10
v10
o2
n-2
o2
v13
v10
o2
v13
v13
o2
v24
v24
o2
n-2
o2
v27
v24
o2
v27
v27
o2
v38
v38
o2
n-2
o2
v41
v38
o2
v41
v41
C88
o54
9
o2
v11
v11
o2
n-2
o2
v12
v11
o2
v12
v12
o2
v25
v25
o2
n-2
o2
v26
v25
o2
v26
v26
o2
v39
v39
o2
n-2
o2
v40
v39
o2
v40
v40
C89
o54
9
o2
v11
v11
o2
n-2
o2
v13
v11
o2
v13
v13
o2
v25
v25
o2
n-2
o2
v27
v25
o2
v27
v27
o2
v39
v39
o2
n-2
o2
v41
v39
o2
v41
v41
C90
o54
9
o2
v12
v12
o2
n-2
o2
v13
v12
o2
v13
v13
o2
v26
v26
o2
n-2
o2
v27
v26
o2
v27
v27
o2
v40
v40
o2
n-2
o2
v41
v40
o2
v41
v41
C91
o2
v43
v42
C92
o54
9
o2
v0
v0
o2
n-2
o2
v1
v0
o2
v1
v1
o2
v14
v14
o2
n-2
o2
v15
v14
o2
v15
v15
o2
v28
v28
o2
n-2
o2
v29
v28
o2
v29
v29
C93
o54
9
o2
v0
v0
o2
n-2
o2
v2
v0
o2
v2
v2
o2
v14
v14
o2
n-2
o2
v16
v14
o2
v16
v16
o2
v28
v28
o2
n-2
o2
v30
v28
o2
v30
v30
C94
o54
9
o2
v0
v0
o2
n-2
o2
v3
v0
o2
v3
v3
o2
v14
v14
o2
n-2
o2
v17
v14
o2
v17
v17
o2
v28
v28
o2
n-2
o2
v31
v28
o2
v31
v31
C95
o54
9
o2
v0
v0
o2
n-2
o2
v4
v0
o2
v4
v4
o2
v14
v14
o2
n-2
o2
v18
v14
o2
v18
v18
o2
v28
v28
o2
n-2
o2
v32
v28
o2
v32
v32
C96
o54
9
o2
v0
v0
o2
n-2
o2
v5
v0
o2
v5
v5
o2
v14
v14
o2
n-2
o2
v19
v14
o2
v19
v19
o2
v28
v28
o2
n-2
o2
v33
v28
o2
v33
v33
C97
o54
9
o2
v0
v0
o2
n-2
o2
v6
v0
o2
v6
v6
o2
v14
v14
o2
n-2
o2
v20
v14
o2
v20
v20
o2
v28
v28
o2
n-2
o2
v34
v28
o2
v34
v34
C98
o54
9
o2
v0
v0
o2
n-2
o2
v7
v0
o2
v7
v7
o2
v14
v14
o2
n-2
o2
v21
v14
o2
v21
v21
o2
v28
v28
o2
n-2
o2
v35
v28
o2
v35
v35
C99
o54
9
o2
v0
v0
o2
n-2
o2
v8
v0
o2
v8
v8
o2
v14
v14
o2
n-2
o2
v22
v14
o2
v22
v22
o2
v28
v28
o2
n-2
o2
v36
v28
o2
v36
v36
C100
o54
9
o2
v0
v0
o2
n-2
o2
v9
v0
o2
v9
v9
o2
v14
v14
o2
n-2
o2
v23
v14
o2
v23
v23
o2
v28
v28
o2
n-2
o2
v37
v28
o2
v37
v37
C101
o54
9
o2
v0
v0
o2
n-2
o2
v10
v0
o2
v10
v10
o2
v14
v14
o2
n-2
o2
v24
v14
o2
v24
v24
o2
v28
v28
o2
n-2
o2
v38
v28
o2
v38
v38
C102
o54
9
o2
v0
v0
o2
n-2
o2
v11
v0
o2
v11
v11
o2
v14
v14
o2
n-2
o2
v25
v14
o2
v25
v25
o2
v28
v28
o2
n-2
o2
v39
v28
o2
v39
v39
C103
o54
9
o2
v0
v0
o2
n-2
o2
v12
v0
o2
v12
v12
o2
v14
v14
o2
n-2
o2
v26
v14
o2
v26
v26
o2
v28
v28
o2
n-2
o2
v40
v28
o2
v40
v40
C104
o54
9
o2
v0
v0
o2
n-2
o2
v13
v0
o2
v13
v13
o2
v14
v14
o2
n-2
o2
v27
v14
o2
v27
v27
o2
v28
v28
o2
n-2
o2
v41
v28
o2
v41
v41
C105
o54
9
o2
v1
v1
o2
n-2
o2
v2
v1
o2
v2
v2
o2
v15
v15
o2
n-2
o2
v16
v15
o2
v16
v16
o2
v29
v29
o2
n-2
o2
v30
v29
o2
v30
v30
C106
o54
9
o2
v1
v1
o2
n-2
o2
v3
v1
o2
v3
v3
o2
v15
v15
o2
n-2
o2
v17
v15
o2
v17
v17
o2
v29
v29
o2
n-2
o2
v31
v29
o2
v31
v31
C107
o54
9
o2
v1
v1
o2
n-2
o2
v4
v1
o2
v4
v4
o2
v15
v15
o2
n-2
o2
v18
v15
o2
v18
v18
o2
v29
v29
o2
n-2
o2
v32
v29
o2
v32
v32
C108
o54
9
o2
v1
v1
o2
n-2
o2
v5
v1
o2
v5
v5
o2
v15
v15
o2
n-2
o2
v19
v15
o2
v19
v19
o2
v29
v29
o2
n-2
o2
v33
v29
o2
v33
v33
C109
o54
9
o2
v1
v1
o2
n-2
o2
v6
v1
o2
v6
v6
o2
v15
v15
o2
n-2
o2
v20
v15
o2
v20
v20
o2
v29
v29
o2
n-2
o2
v34
v29
o2
v34
v34
C110
o54
9
o2
v1
v1
o2
n-2
o2
v7
v1
o2
v7
v7
o2
v15
v15
o2
n-2
o2
v21
v15
o2
v21
v21
o2
v29
v29
o2
n-2
o2
v35
v29
o2
v35
v35
C111
o54
9
o2
v1
v1
o2
n-2
o2
v8
v1
o2
v8
v8
o2
v15
v15
o2
n-2
o2
v22
v15
o2
v22
v22
o2
v29
v29
o2
n-2
o2
v36
v29
o2
v36
v36
C112
o54
9
o2
v1
v1
o2
n-2
o2
v9
v1
o2
v9
v9
o2
v15
v15
o2
n-2
o2
v23
v15
o2
v23
v23
o2
v29
v29
o2
n-2
o2
v37
v29
o2
v37
v37
C113
o54
9
o2
v1
v1
o2
n-2
o2
v10
v1
o2
v10
v10
o2
v15
v15
o2
n-2
o2
v24
v15
o2
v24
v24
o2
v29
v29
o2
n-2
o2
v38
v29
o2
v38
v38
C114
o54
9
o2
v1
v1
o2
n-2
o2
v11
v1
o2
v11
v11
o2
v15
v15
o2
n-2
o2
v25
v15
o2
v25
v25
o2
v29
v29
o2
n-2
o2
v39
v29
o2
v39
v39
C115
o54
9
o2
v1
v1
o2
n-2
o2
v12
v1
o2
v12
v12
o2
v15
v15
o2
n-2
o2
v26
v15
o2
v26
v26
o2
v29
v29
o2
n-2
o2
v40
v29
o2
v40
v40
C116
o54
9
o2
v1
v1
o2
n-2
o2
v13
v1
o2
v13
v13
o2
v15
v15
o2
n-2
o2
v27
v15
o2
v27
v27
o2
v29
v29
o2
n-2
o2
v41
v29
o2
v41
v41
C117
o54
9
o2
v2
v2
o2
n-2
o2
v3
v2
o2
v3
v3
o2
v16
v16
o2
n-2
o2
v17
v16
o2
v17
v17
o2
v30
v30
o2
n-2
o2
v31
v30
o2
v31
v31
C118
o54
9
o2
v2
v2
o2
n-2
o2
v4
v2
o2
v4
v4
o2
v16
v16
o2
n-2
o2
v18
v16
o2
v18
v18
o2
v30
v30
o2
n-2
o2
v32
v30
o2
v32
v32
C119
o54
9
o2
v2
v2
o2
n-2
o2
v5
v2
o2
v5
v5
o2
v16
v16
o2
n-2
o2
v19
v16
o2
v19
v19
o2
v30
v30
o2
n-2
o2
v33
v30
o2
v33
v33
C120
o54
9
o2
v2
v2
o2
n-2
o2
v6
v2
o2
v6
v6
o2
v16
v16
o2
n-2
o2
v20
v16
o2
v20
v20
o2
v30
v30
o2
n-2
o2
v34
v30
o2
v34
v34
C121
o54
9
o2
v2
v2
o2
n-2
o2
v7
v2
o2
v7
v7
o2
v16
v16
o2
n-2
o2
v21
v16
o2
v21
v21
o2
v30
v30
o2
n-2
o2
v35
v30
o2
v35
v35
C122
o54
9
o2
v2
v2
o2
n-2
o2
v8
v2
o2
v8
v8
o2
v16
v16
o2
n-2
o2
v22
v16
o2
v22
v22
o2
v30
v30
o2
n-2
o2
v36
v30
o2
v36
v36
C123
o54
9
o2
v2
v2
o2
n-2
o2
v9
v2
o2
v9
v9
o2
v16
v16
o2
n-2
o2
v23
v16
o2
v23
v23
o2
v30
v30
o2
n-2
o2
v37
v30
o2
v37
v37
C124
o54
9
o2
v2
v2
o2
n-2
o2
v10
v2
o2
v10
v10
o2
v16
v16
o2
n-2
o2
v24
v16
o2
v24
v24
o2
v30
v30
o2
n-2
o2
v38
v30
o2
v38
v38
C125
o54
9
o2
v2
v2
o2
n-2
o2
v11
v2
o2
v11
v11
o2
v16
v16
o2
n-2
o2
v25
v16
o2
v25
v25
o2
v30
v30
o2
n-2
o2
v39
v30
o2
v39
v39
C126
o54
9
o2
v2
v2
o2
n-2
o2
v12
v2
o2
v12
v12
o2
v16
v16
o2
n-2
o2
v26
v16
o2
v26
v26
o2
v30
v30
o2
n-2
o2
v40
v30
o2
v40
v40
C127
o54
9
o2
v2
v2
o2
n-2
o2
v13
v2
o2
v13
v13
o2
v16
v16
o2
n-2
o2
v27
v16
o2
v27
v27
o2
v30
v30
o2
n-2
o2
v41
v30
o2
v41
v41
C128
o54
9
o2
v3
v3
o2
n-2
o2
v4
v3
o2
v4
v4
o2
v17
v17
o2
n-2
o2
v18
v17
o2
v18
v18
o2
v31
v31
o2
n-2
o2
v32
v31
o2
v32
v32
C129
o54
9
o2
v3
v3
o2
n-2
o2
v5
v3
o2
v5
v5
o2
v17
v17
o2
n-2
o2
v19
v17
o2
v19
v19
o2
v31
v31
o2
n-2
o2
v33
v31
o2
v33
v33
C130
o54
9
o2
v3
v3
o2
n-2
o2
v6
v3
o2
v6
v6
o2
v17
v17
o2
n-2
o2
v20
v17
o2
v20
v20
o2
v31
v31
o2
n-2
o2
v34
v31
o2
v34
v34
C131
o54
9
o2
v3
v3
o2
n-2
o2
v7
v3
o2
v7
v7
o2
v17
v17
o2
n-2
o2
v21
v17
o2
v21
v21
o2
v31
v31
o2
n-2
o2
v35
v31
o2
v35
v35
C132
o54
9
o2
v3
v3
o2
n-2
o2
v8
v3
o2
v8
v8
o2
v17
v17
o2
n-2
o2
v22
v17
o2
v22
v22
o2
v31
v31
o2
n-2
o2
v36
v31
o2
v36
v36
C133
o54
9
o2
v3
v3
o2
n-2
o2
v9
v3
o2
v9
v9
o2
v17
v17
o2
n-2
o2
v23
v17
o2
v23
v23
o2
v31
v31
o2
n-2
o2
v37
v31
o2
v37
v37
C134
o54
9
o2
v3
v3
o2
n-2
o2
v10
v3
o2
v10
v10
o2
v17
v17
o2
n-2
o2
v24
v17
o2
v24
v24
o2
v31
v31
o2
n-2
o2
v38
v31
o2
v38
v38
C135
o54
9
o2
v3
v3
o2
n-2
o2
v11
v3
o2
v11
v11
o2
v17
v17
o2
n-2
o2
v25
v17
o2
v25
v25
o2
v31
v31
o2
n-2
o2
v39
v31
o2
v39
v39
C136
o54
9
o2
v3
v3
o2
n-2
o2
v12
v3
o2
v12
v12
o2
v17
v17
o2
n-2
o2
v26
v17
o2
v26
v26
o2
v31
v31
o2
n-2
o2
v40
v31
o2
v40
v40
C137
o54
9
o2
v3
v3
o2
n-2
o2
v13
v3
o2
v13
v13
o2
v17
v17
o2
n-2
o2
v27
v17
o2
v27
v27
o2
v31
v31
o2
n-2
o2
v41
v31
o2
v41
v41
C138
o54
9
o2
v4
v4
o2
n-2
o2
v5
v4
o2
v5
v5
o2
v18
v18
o2
n-2
o2
v19
v18
o2
v19
v19
o2
v32
v32
o2
n-2
o2
v33
v32
o2
v33
v33
C139
o54
9
o2
v4
v4
o2
n-2
o2
v6
v4
o2
v6
v6
o2
v18
v18
o2
n-2
o2
v20
v18
o2
v20
v20
o2
v32
v32
o2
n-2
o2
v34
v32
o2
v34
v34
C140
o54
9
o2
v4
v4
o2
n-2
o2
v7
v4
o2
v7
v7
o2
v18
v18
o2
n-2
o2
v21
v18
o2
v21
v21
o2
v32
v32
o2
n-2
o2
v35
v32
o2
v35
v35
C141
o54
9
o2
v4
v4
o2
n-2
o2
v8
v4
o2
v8
v8
o2
v18
v18
o2
n-2
o2
v22
v18
o2
v22
v22
o2
v32
v32
o2
n-2
o2
v36
v32
o2
v36
v36
C142
o54
9
o2
v4
v4
o2
n-2
o2
v9
v4
o2
v9
v9
o2
v18
v18
o2
n-2
o2
v23
v18
o2
v23
v23
o2
v32
v32
o2
n-2
o2
v37
v32
o2
v37
v37
C143
o54
9
o2
v4
v4
o2
n-2
o2
v10
v4
o2
v10
v10
o2
v18
v18
o2
n-2
o2
v24
v18
o2
v24
v24
o2
v32
v32
o2
n-2
o2
v38
v32
o2
v38
v38
C144
o54
9
o2
v4
v4
o2
n-2
o2
v11
v4
o2
v11
v11
o2
v18
v18
o2
n-2
o2
v25
v18
o2
v25
v25
o2
v32
v32
o2
n-2
o2
v39
v32
o2
v39
v39
C145
o54
9
o2
v4
v4
o2
n-2
o2
v12
v4
o2
v12
v12
o2
v18
v18
o2
n-2
o2
v26
v18
o2
v26
v26
o2
v32
v32
o2
n-2
o2
v40
v32
o2
v40
v40
C146
o54
9
o2
v4
v4
o2
n-2
o2
v13
v4
o2
v13
v13
o2
v18
v18
o2
n-2
o2
v27
v18
o2
v27
v27
o2
v32
v32
o2
n-2
o2
v41
v32
o2
v41
v41
C147
o54
9
o2
v5
v5
o2
n-2
o2
v6
v5
o2
v6
v6
o2
v19
v19
o2
n-2
o2
v20
v19
o2
v20
v20
o2
v33
v33
o2
n-2
o2
v34
v33
o2
v34
v34
C148
o54
9
o2
v5
v5
o2
n-2
o2
v7
v5
o2
v7
v7
o2
v19
v19
o2
n-2
o2
v21
v19
o2
v21
v21
o2
v33
v33
o2
n-2
o2
v35
v33
o2
v35
v35
C149
o54
9
o2
v5
v5
o2
n-2
o2
v8
v5
o2
v8
v8
o2
v19
v19
o2
n-2
o2
v22
v19
o2
v22
v22
o2
v33
v33
o2
n-2
o2
v36
v33
o2
v36
v36
C150
o54
9
o2
v5
v5
o2
n-2
o2
v9
v5
o2
v9
v9
o2
v19
v19
o2
n-2
o2
v23
v19
o2
v23
v23
o2
v33
v33
o2
n-2
o2
v37
v33
o2
v37
v37
C151
o54
9
o2
v5
v5
o2
n-2
o2
v10
v5
o2
v10
v10
o2
v19
v19
o2
n-2
o2
v24
v19
o2
v24
v24
o2
v33
v33
o2
n-2
o2
v38
v33
o2
v38
v38
C152
o54
9
o2
v5
v5
o2
n-2
o2
v11
v5
o2
v11
v11
o2
v19
v19
o2
n-2
o2
v25
v19
o2
v25
v25
o2
v33
v33
o2
n-2
o2
v39
v33
o2
v39
v39
C153
o54
9
o2
v5
v5
o2
n-2
o2
v12
v5
o2
v12
v12
o2
v19
v19
o2
n-2
o2
v26
v19
o2
v26
v26
o2
v33
v33
o2
n-2
o2
v40
v33
o2
v40
v40
C154
o54
9
o2
v5
v5
o2
n-2
o2
v13
v5
o2
v13
v13
o2
v19
v19
o2
n-2
o2
v27
v19
o2
v27
v27
o2
v33
v33
o2
n-2
o2
v41
v33
o2
v41
v41
C155
o54
9
o2
v6
v6
o2
n-2
o2
v7
v6
o2
v7
v7
o2
v20
v20
o2
n-2
o2
v21
v20
o2
v21
v21
o2
v34
v34
o2
n-2
o2
v35
v34
o2
v35
v35
C156
o54
9
o2
v6
v6
o2
n-2
o2
v8
v6
o2
v8
v8
o2
v20
v20
o2
n-2
o2
v22
v20
o2
v22
v22
o2
v34
v34
o2
n-2
o2
v36
v34
o2
v36
v36
C157
o54
9
o2
v6
v6
o2
n-2
o2
v9
v6
o2
v9
v9
o2
v20
v20
o2
n-2
o2
v23
v20
o2
v23
v23
o2
v34
v34
o2
n-2
o2
v37
v34
o2
v37
v37
C158
o54
9
o2
v6
v6
o2
n-2
o2
v10
v6
o2
v10
v10
o2
v20
v20
o2
n-2
o2
v24
v20
o2
v24
v24
o2
v34
v34
o2
n-2
o2
v38
v34
o2
v38
v38
C159
o54
9
o2
v6
v6
o2
n-2
o2
v11
v6
o2
v11
v11
o2
v20
v20
o2
n-2
o2
v25
v20
o2
v25
v25
o2
v34
v34
o2
n-2
o2
v39
v34
o2
v39
v39
C160
o54
9
o2
v6
v6
o2
n-2
o2
v12
v6
o2
v12
v12
o2
v20
v20
o2
n-2
o2
v26
v20
o2
v26
v26
o2
v34
v34
o2
n-2
o2
v40
v34
o2
v40
v40
C161
o54
9
o2
v6
v6
o2
n-2
o2
v13
v6
o2
v13
v13
o2
v20
v20
o2
n-2
o2
v27
v20
o2
v27
v27
o2
v34
v34
o2
n-2
o2
v41
v34
o2
v41
v41
C162
o54
9
o2
v7
v7
o2
n-2
o2
v8
v7
o2
v8
v8
o2
v21
v21
o2
n-2
o2
v22
v21
o2
v22
v22
o2
v35
v35
o2
n-2
o2
v36
v35
o2
v36
v36
C163
o54
9
o2
v7
v7
o2
n-2
o2
v9
v7
o2
v9
v9
o2
v21
v21
o2
n-2
o2
v23
v21
o2
v23
v23
o2
v35
v35
o2
n-2
o2
v37
v35
o2
v37
v37
C164
o54
9
o2
v7
v7
o2
n-2
o2
v10
v7
o2
v10
v10
o2
v21
v21
o2
n-2
o2
v24
v21
o2
v24
v24
o2
v35
v35
o2
n-2
o2
v38
v35
o2
v38
v38
C165
o54
9
o2
v7
v7
o2
n-2
o2
v11
v7
o2
v11
v11
o2
v21
v21
o2
n-2
o2
v25
v21
o2
v25
v25
o2
v35
v35
o2
n-2
o2
v39
v35
o2
v39
v39
C166
o54
9
o2
v7
v7
o2
n-2
o2
v12
v7
o2
v12
v12
o2
v21
v21
o2
n-2
o2
v26
v21
o2
v26
v26
o2
v35
v35
o2
n-2
o2
v40
v35
o2
v40
v40
C167
o54
9
o2
v7
v7
o2
n-2
o2
v13
v7
o2
v13
v13
o2
v21
v21
o2
n-2
o2
v27
v21
o2
v27
v27
o2
v35
v35
o2
n-2
o2
v41
v35
o2
v41
v41
C168
o54
9
o2
v8
v8
o2
n-2
o2
v9
v8
o2
v9
v9
o2
v22
v22
o2
n-2
o2
v23
v22
o2
v23
v23
o2
v36
v36
o2
n-2
o2
v37
v36
o2
v37
v37
C169
o54
9
o2
v8
v8
o2
n-2
o2
v10
v8
o2
v10
v10
o2
v22
v22
o2
n-2
o2
v24
v22
o2
v24
v24
o2
v36
v36
o2
n-2
o2
v38
v36
o2
v38
v38
C170
o54
9
o2
v8
v8
o2
n-2
o2
v11
v8
o2
v11
v11
o2
v22
v22
o2
n-2
o2
v25
v22
o2
v25
v25
o2
v36
v36
o2
n-2
o2
v39
v36
o2
v39
v39
C171
o54
9
o2
v8
v8
o2
n-2
o2
v12
v8
o2
v12
v12
o2
v22
v22
o2
n-2
o2
v26
v22
o2
v26
v26
o2
v36
v36
o2
n-2
o2
v40
v36
o2
v40
v40
C172
o54
9
o2
v8
v8
o2
n-2
o2
v13
v8
o2
v13
v13
o2
v22
v22
o2
n-2
o2
v27
v22
o2
v27
v27
o2
v36
v36
o2
n-2
o2
v41
v36
o2
v41
v41
C173
o54
9
o2
v9
v9
o2
n-2
o2
v10
v9
o2
v10
v10
o2
v23
v23
o2
n-2
o2
v24
v23
o2
v24
v24
o2
v37
v37
o2
n-2
o2
v38
v37
o2
v38
v38
C174
o54
9
o2
v9
v9
o2
n-2
o2
v11
v9
o2
v11
v11
o2
v23
v23
o2
n-2
o2
v25
v23
o2
v25
v25
o2
v37
v37
o2
n-2
o2
v39
v37
o2
v39
v39
C175
o54
9
o2
v9
v9
o2
n-2
o2
v12
v9
o2
v12
v12
o2
v23
v23
o2
n-2
o2
v26
v23
o2
v26
v26
o2
v37
v37
o2
n-2
o2
v40
v37
o2
v40
v40
C176
o54
9
o2
v9
v9
o2
n-2
o2
v13
v9
o2
v13
v13
o2
v23
v23
o2
n-2
o2
v27
v23
o2
v27
v27
o2
v37
v37
o2
n-2
o2
v41
v37
o2
v41
v41
C177
o54
9
o2
v10
v10
o2
n-2
o2
v11
v10
o2
v11
v11
o2
v24
v24
o2
n-2
o2
v25
v24
o2
v25
v25
o2
v38
v38
o2
n-2
o2
v39
v38
o2
v39
v39
C178
o54
9
o2
v10
v10
o2
n-2
o2
v12
v10
o2
v12
v12
o2
v24
v24
o2
n-2
o2
v26
v24
o2
v26
v26
o2
v38
v38
o2
n-2
o2
v40
v38
o2
v40
v40
C179
o54
9
o2
v10
v10
o2
n-2
o2
v13
v10
o2
v13
v13
o2
v24
v24
o2
n-2
o2
v27
v24
o2
v27
v27
o2
v38
v38
o2
n-2
o2
v41
v38
o2
v41
v41
C180
o54
9
o2
v11
v11
o2
n-2
o2
v12
v11
o2
v12
v12
o2
v25
v25
o2
n-2
o2
v26
v25
o2
v26
v26
o2
v39
v39
o2
n-2
o2
v40
v39
o2
v40
v40
C181
o54
9
o2
v11
v11
o2
n-2
o2
v13
v11
o2
v13
v13
o2
v25
v25
o2
n-2
o2
v27
v25
o2
v27
v27
o2
v39
v39
o2
n-2
o2
v41
v39
o2
v41
v41
C182
o54
9
o2
v12
v12
o2
n-2
o2
v13
v12
o2
v13
v13
o2
v26
v26
o2
n-2
o2
v27
v26
o2
v27
v27
o2
v40
v40
o2
n-2
o2
v41
v40
o2
v41
v41
C183
n0
O0 0
n0
x45
0 0
1 0
2 0
3 0
4 0
5 0
6 0
7 0
8 0
9 0
10 0
11 0
12 0
13 0
14 0
15 0
16 0
17 0
18 0
19 0
20 0
21 0
22 0
23 0
24 0
25 0
26 0
27 0
28 0
29 0
30 0
31 0
32 0
33 0
34 0
35 0
36 0
37 0
38 0
39 0
40 0
41 0
42 0
43 0
44 0
r
2 0
2 0
2 0
2 0
2 0
2 0
2 0
2 0
2 0
2 0
2 0
2 0
2 0
2 0
2 0
2 0
2 0
2 0
2 0
2 0
2 0
2 0
2 0
2 0
2 0
2 0
2 0
2 0
2 0
2 0
2 0
2 0
2 0
2 0
2 0
2 0
2 0
2 0
2 0
2 0
2 0
2 0
2 0
2 0
2 0
2 0
2 0
2 0
2 0
2 0
2 0
2 0
2 0
2 0
2 0
2 0
2 0
2 0
2 0
2 0
2 0
2 0
2 0
2 0
2 0
2 0
2 0
2 0
2 0
2 0
2 0
2 0
2 0
2 0
2 0
2 0
2 0
2 0
2 0
2 0
2 0
2 0
2 0
2 0
2 0
2 0
2 0
2 0
2 0
2 0
2 0
2 1
1 1
1 1
1 1
1 1
1 1
1 1
1 1
1 1
1 1
1 1
1 1
1 1
1 1
1 1
1 1
1 1
1 1
1 1
1 1
1 1
1 1
1 1
1 1
1 1
1 1
1 1
1 1
1 1
1 1
1 1
1 1
1 1
1 1
1 1
1 1
1 1
1 1
1 1
1 1
1 1
1 1
1 1
1 1
1 1
1 1
1 1
1 1
1 1
1 1
1 1
1 1
1 1
1 1
1 1
1 1
1 1
1 1
1 1
1 1
1 1
1 1
1 1
1 1
1 1
1 1
1 1
1 1
1 1
1 1
1 1
1 1
1 1
1 1
1 1
1 1
1 1
1 1
1 1
1 1
1 1
1 1
1 1
1 1
1 1
1 1
1 1
1 1
1 1
1 1
1 1
1 1
4 1
b
0 0 1
0 0 1
0 0 1
0 0 1
0 0 1
0 0 1
0 0 1
0 0 1
0 0 1
0 0 1
0 0 1
0 0 1
0 0 1
0 0 1
0 0 1
0 0 1
0 0 1
0 0 1
0 0 1
0 0 1
0 0 1
0 0 1
0 0 1
0 0 1
0 0 1
0 0 1
0 0 1
0 0 1
0 0 1
0 0 1
0 0 1
0 0 1
0 0 1
0 0 1
0 0 1
0 0 1
0 0 1
0 0 1
0 0 1
0 0 1
0 0 1
0 0 1
2 0
2 0
2 0
k44
26
52
78
104
130
156
182
208
234
260
286
312
338
364
390
416
442
468
494
520
546
572
598
624
650
676
702
728
754
780
806
832
858
884
910
936
962
988
1014
1040
1066
1092
1184
1185
J0 7
0 0
1 0
14 0
15 0
28 0
29 0
42 -1
J1 7
0 0
2 0
14 0
16 0
28 0
30 0
42 -1
J2 7
0 0
3 0
14 0
17 0
28 0
31 0
42 -1
J3 7
0 0
4 0
14 0
18 0
28 0
32 0
42 -1
J4 7
0 0
5 0
14 0
19 0
28 0
33 0
42 -1
J5 7
0 0
6 0
14 0
20 0
28 0
34 0
42 -1
J6 7
0 0
7 0
14 0
21 0
28 0
35 0
42 -1
J7 7
0 0
8 0
14 0
22 0
28 0
36 0
42 -1
J8 7
0 0
9 0
14 0
23 0
28 0
37 0
42 -1
J9 7
0 0
10 0
14 0
24 0
28 0
38 0
42 -1
J10 7
0 0
11 0
14 0
25 0
28 0
39 0
42 -1
J11 7
0 0
12 0
14 0
26 0
28 0
40 0
42 -1
J12 7
0 0
13 0
14 0
27 0
28 0
41 0
42 -1
J13 7
1 0
2 0
15 0
16 0
29 0
30 0
42 -1
J14 7
1 0
3 0
15 0
17 0
29 0
31 0
42 -1
J15 7
1 0
4 0
15 0
18 0
29 0
32 0
42 -1
J16 7
1 0
5 0
15 0
19 0
29 0
33 0
42 -1
J17 7
1 0
6 0
15 0
20 0
29 0
34 0
42 -1
J18 7
1 0
7 0
15 0
21 0
29 0
35 0
42 -1
J19 7
1 0
8 0
15 0
22 0
29 0
36 0
42 -1
J20 7
1 0
9 0
15 0
23 0
29 0
37 0
42 -1
J21 7
1 0
10 0
15 0
24 0
29 0
38 0
42 -1
J22 7
1 0
11 0
15 0
25 0
29 0
39 0
42 -1
J23 7
1 0
12 0
15 0
26 0
29 0
40 0
42 -1
J24 7
1 0
13 0
15 0
27 0
29 0
41 0
42 -1
J25 7
2 0
3 0
16 0
17 0
30 0
31 0
42 -1
J26 7
2 0
4 0
16 0
18 0
30 0
32 0
42 -1
J27 7
2 0
5 0
16 0
19 0
30 0
33 0
42 -1
J28 7
2 0
6 0
16 0
20 0
30 0
34 0
42 -1
J29 7
2 0
7 0
16 0
21 0
30 0
35 0
42 -1
J30 7
2 0
8 0
16 0
22 0
30 0
36 0
42 -1
J31 7
2 0
9 0
16 0
23 0
30 0
37 0
42 -1
J32 7
2 0
10 0
16 0
24 0
30 0
38 0
42 -1
J33 7
2 0
11 0
16 0
25 0
30 0
39 0
42 -1
J34 7
2 0
12 0
16 0
26 0
30 0
40 0
42 -1
J35 7
2 0
13 0
16 0
27 0
30 0
41 0
42 -1
J36 7
3 0
4 0
17 0
18 0
31 0
32 0
42 -1
J37 7
3 0
5 0
17 0
19 0
31 0
33 0
42 -1
J38 7
3 0
6 0
17 0
20 0
31 0
34 0
42 -1
J39 7
3 0
7 0
17 0
21 0
31 0
35 0
42 -1
J40 7
3 0
8 0
17 0
22 0
31 0
36 0
42 -1
J41 7
3 0
9 0
17 0
23 0
31 0
37 0
42 -1
J42 7
3 0
10 0
17 0
24 0
31 0
38 0
42 -1
J43 7
3 0
11 0
17 0
25 0
31 0
39 0
42 -1
J44 7
3 0
12 0
17 0
26 0
31 0
40 0
42 -1
J45 7
3 0
13 0
17 0
27 0
31 0
41 0
42 -1
J46 7
4 0
5 0
18 0
19 0
32 0
33 0
42 -1
J47 7
4 0
6 0
18 0
20 0
32 0
34 0
42 -1
J48 7
4 0
7 0
18 0
21 0
32 0
35 0
42 -1
J49 7
4 0
8 0
18 0
22 0
32 0
36 0
42 -1
J50 7
4 0
9 0
18 0
23 0
32 0
37 0
42 -1
J51 7
4 0
10 0
18 0
24 0
32 0
38 0
42 -1
J52 7
4 0
11 0
18 0
25 0
32 0
39 0
42 -1
J53 7
4 0
12 0
18 0
26 0
32 0
40 0
42 -1
J54 7
4 0
13 0
18 0
27 0
32 0
41 0
42 -1
J55 7
5 0
6 0
19 0
20 0
33 0
34 0
42 -1
J56 7
5 0
7 0
19 0
21 0
33 0
35 0
42 -1
J57 7
5 0
8 0
19 0
22 0
33 0
36 0
42 -1
J58 7
5 0
9 0
19 0
23 0
33 0
37 0
42 -1
J59 7
5 0
10 0
19 0
24 0
33 0
38 0
42 -1
J60 7
5 0
11 0
19 0
25 0
33 0
39 0
42 -1
J61 7
5 0
12 0
19 0
26 0
33 0
40 0
42 -1
J62 7
5 0
13 0
19 0
27 0
33 0
41 0
42 -1
J63 7
6 0
7 0
20 0
21 0
34 0
35 0
42 -1
J64 7
6 0
8 0
20 0
22 0
34 0
36 0
42 -1
J65 7
6 0
9 0
20 0
23 0
34 0
37 0
42 -1
J66 7
6 0
10 0
20 0
24 0
34 0
38 0
42 -1
J67 7
6 0
11 0
20 0
25 0
34 0
39 0
42 -1
J68 7
6 0
12 0
20 0
26 0
34 0
40 0
42 -1
J69 7
6 0
13 0
20 0
27 0
34 0
41 0
42 -1
J70 7
7 0
8 0
21 0
22 0
35 0
36 0
42 -1
J71 7
7 0
9 0
21 0
23 0
35 0
37 0
42 -1
J72 7
7 0
10 0
21 0
24 0
35 0
38 0
42 -1
J73 7
7 0
11 0
21 0
25 0
35 0
39 0
42 -1
J74 7
7 0
12 0
21 0
26 0
35 0
40 0
42 -1
J75 7
7 0
13 0
21 0
27 0
35 0
41 0
42 -1
J76 7
8 0
9 0
22 0
23 0
36 0
37 0
42 -1
J77 7
8 0
10 0
22 0
24 0
36 0
38 0
42 -1
J78 7
8 0
11 0
22 0
25 0
36 0
39 0
42 -1
J79 7
8 0
12 0
22 0
26 0
36 0
40 0
42 -1
J80 7
8 0
13 0
22 0
27 0
36 0
41 0
42 -1
J81 7
9 0
10 0
23 0
24 0
37 0
38 0
42 -1
J82 7
9 0
11 0
23 0
25 0
37 0
39 0
42 -1
J83 7
9 0
12 0
23 0
26 0
37 0
40 0
42 -1
J84 7
9 0
13 0
23 0
27 0
37 0
41 0
42 -1
J85 7
10 0
11 0
24 0
25 0
38 0
39 0
42 -1
J86 7
10 0
12 0
24 0
26 0
38 0
40 0
42 -1
J87 7
10 0
13 0
24 0
27 0
38 0
41 0
42 -1
J88 7
11 0
12 0
25 0
26 0
39 0
40 0
42 -1
J89 7
11 0
13 0
25 0
27 0
39 0
41 0
42 -1
J90 7
12 0
13 0
26 0
27 0
40 0
41 0
42 -1
J91 2
42 0
43 0
J92 6
0 0
1 0
14 0
15 0
28 0
29 0
J93 6
0 0
2 0
14 0
16 0
28 0
30 0
J94 6
0 0
3 0
14 0
17 0
28 0
31 0
J95 6
0 0
4 0
14 0
18 0
28 0
32 0
J96 6
0 0
5 0
14 0
19 0
28 0
33 0
J97 6
0 0
6 0
14 0
20 0
28 0
34 0
J98 6
0 0
7 0
14 0
21 0
28 0
35 0
J99 6
0 0
8 0
14 0
22 0
28 0
36 0
J100 6
0 0
9 0
14 0
23 0
28 0
37 0
J101 6
0 0
10 0
14 0
24 0
28 0
38 0
J102 6
0 0
11 0
14 0
25 0
28 0
39 0
J103 6
0 0
12 0
14 0
26 0
28 0
40 0
J104 6
0 0
13 0
14 0
27 0
28 0
41 0
J105 6
1 0
2 0
15 0
16 0
29 0
30 0
J106 6
1 0
3 0
15 0
17 0
29 0
31 0
J107 6
1 0
4 0
15 0
18 0
29 0
32 0
J108 6
1 0
5 0
15 0
19 0
29 0
33 0
J109 6
1 0
6 0
15 0
20 0
29 0
34 0
J110 6
1 0
7 0
15 0
21 0
29 0
35 0
J111 6
1 0
8 0
15 0
22 0
29 0
36 0
J112 6
1 0
9 0
15 0
23 0
29 0
37 0
J113 6
1 0
10 0
15 0
24 0
29 0
38 0
J114 6
1 0
11 0
15 0
25 0
29 0
39 0
J115 6
1 0
12 0
15 0
26 0
29 0
40 0
J116 6
1 0
13 0
15 0
27 0
29 0
41 0
J117 6
2 0
3 0
16 0
17 0
30 0
31 0
J118 6
2 0
4 0
16 0
18 0
30 0
32 0
J119 6
2 0
5 0
16 0
19 0
30 0
33 0
J120 6
2 0
6 0
16 0
20 0
30 0
34 0
J121 6
2 0
7 0
16 0
21 0
30 0
35 0
J122 6
2 0
8 0
16 0
22 0
30 0
36 0
J123 6
2 0
9 0
16 0
23 0
30 0
37 0
J124 6
2 0
10 0
16 0
24 0
30 0
38 0
J125 6
2 0
11 0
16 0
25 0
30 0
39 0
J126 6
2 0
12 0
16 0
26 0
30 0
40 0
J127 6
2 0
13 0
16 0
27 0
30 0
41 0
J128 6
3 0
4 0
17 0
18 0
31 0
32 0
J129 6
3 0
5 0
17 0
19 0
31 0
33 0
J130 6
3 0
6 0
17 0
20 0
31 0
34 0
J131 6
3 0
7 0
17 0
21 0
31 0
35 0
J132 6
3 0
8 0
17 0
22 0
31 0
36 0
J133 6
3 0
9 0
17 0
23 0
31 0
37 0
J134 6
3 0
10 0
17 0
24 0
31 0
38 0
J135 6
3 0
11 0
17 0
25 0
31 0
39 0
J136 6
3 0
12 0
17 0
26 0
31 0
40 0
J137 6
3 0
13 0
17 0
27 0
31 0
41 0
J138 6
4 0
5 0
18 0
19 0
32 0
33 0
J139 6
4 0
6 0
18 0
20 0
32 0
34 0
J140 6
4 0
7 0
18 0
21 0
32 0
35 0
J141 6
4 0
8 0
18 0
22 0
32 0
36 0
J142 6
4 0
9 0
18 0
23 0
32 0
37 0
J143 6
4 0
10 0
18 0
24 0
32 0
38 0
J144 6
4 0
11 0
18 0
25 0
32 0
39 0
J145 6
4 0
12 0
18 0
26 0
32 0
40 0
J146 6
4 0
13 0
18 0
27 0
32 0
41 0
J147 6
5 0
6 0
19 0
20 0
33 0
34 0
J148 6
5 0
7 0
19 0
21 0
33 0
35 0
J149 6
5 0
8 0
19 0
22 0
33 0
36 0
J150 6
5 0
9 0
19 0
23 0
33 0
37 0
J151 6
5 0
10 0
19 0
24 0
33 0
38 0
J152 6
5 0
11 0
19 0
25 0
33 0
39 0
J153 6
5 0
12 0
19 0
26 0
33 0
40 0
J154 6
5 0
13 0
19 0
27 0
33 0
41 0
J155 6
6 0
7 0
20 0
21 0
34 0
35 0
J156 6
6 0
8 0
20 0
22 0
34 0
36 0
J157 6
6 0
9 0
20 0
23 0
34 0
37 0
J158 6
6 0
10 0
20 0
24 0
34 0
38 0
J159 6
6 0
11 0
20 0
25 0
34 0
39 0
J160 6
6 0
12 0
20 0
26 0
34 0
40 0
J161 6
6 0
13 0
20 0
27 0
34 0
41 0
J162 6
7 0
8 0
21 0
22 0
35 0
36 0
J163 6
7 0
9 0
21 0
23 0
35 0
37 0
J164 6
7 0
10 0
21 0
24 0
35 0
38 0
J165 6
7 0
11 0
21 0
25 0
35 0
39 0
J166 6
7 0
12 0
21 0
26 0
35 0
40 0
J167 6
7 0
13 0
21 0
27 0
35 0
41 0
J168 6
8 0
9 0
22 0
23 0
36 0
37 0
J169 6
8 0
10 0
22 0
24 0
36 0
38 0
J170 6
8 0
11 0
22 0
25 0
36 0
39 0
J171 6
8 0
12 0
22 0
26 0
36 0
40 0
J172 6
8 0
13 0
22 0
27 0
36 0
41 0
J173 6
9 0
10 0
23 0
24 0
37 0
38 0
J174 6
9 0
11 0
23 0
25 0
37 0
39 0
J175 6
9 0
12 0
23 0
26 0
37 0
40 0
J176 6
9 0
13 0
23 0
27 0
37 0
41 0
J177 6
10 0
11 0
24 0
25 0
38 0
39 0
J178 6
10 0
12 0
24 0
26 0
38 0
40 0
J179 6
10 0
13 0
24 0
27 0
38 0
41 0
J180 6
11 0
12 0
25 0
26 0
39 0
40 0
J181 6
11 0
13 0
25 0
27 0
39 0
41 0
J182 6
12 0
13 0
26 0
27 0
40 0
41 0
J183 1
44 1
G0 1
43 1
